environments_harbor/cryptominisat_xor_clause_optimization_medium/environment/data/cnf_files/formula_a.cnf
c formula_a.cnf
c This file contains a 4-variable XOR constraint pattern
c XOR(1,2,3,4) is encoded in the first 8 clauses
c Additional clauses are included for variety
p cnf 8 15
-1 -2 -3 -4 0
1 2 -3 -4 0
1 -2 3 -4 0
-1 2 3 -4 0
1 -2 -3 4 0
-1 2 -3 4 0
-1 -2 3 4 0
1 2 3 4 0
5 6 7 0
-5 8 0
6 -7 8 0
-6 -8 0
5 7 -8 0
-5 -6 7 0
8 -7 0